Route #1: 0 59 51 14 24 11 37 0
Route #2: 0 36 21 33 35 30 48 0
Route #3: 0 4 15 47 25 19 52 0
Route #4: 0 5 3 46 9 34 0
Route #5: 0 20 38 17 54 6 2 61 22 0
Route #6: 0 49 56 39 62 26 41 43 0
Route #7: 0 10 45 27 1 18 0
Route #8: 0 42 12 58 57 53 23 7 0
Route #9: 0 28 55 44 40 8 31 0
Route #10: 0 29 32 13 60 16 50 0
Cost 2290:
